c 
c U(n,d) graph
c graph gen seed     : 9111
c number of vertices : 80
c max number of edges: 3160
c Euclidean distance : 0.200000
c data structure     : sparse
c
c           Graph Stats
c number of vertices  : 80
c nonisolated vertices: 77
c number of edges     : 343
c edge density        : 0.108544
c max degree          : 16
c avg degree          : 8.57
c min degree          : 0
p col 80 343
e 2 79
e 2 76
e 2 71
e 2 63
e 2 51
e 2 43
e 2 29
e 2 27
e 2 15
e 3 39
e 3 35
e 3 14
e 3 12
e 3 11
e 4 70
e 4 21
e 4 20
e 5 77
e 5 39
e 5 23
e 5 11
e 6 78
e 6 74
e 6 73
e 6 64
e 6 62
e 6 61
e 6 59
e 6 36
e 6 30
e 6 23
e 6 18
e 6 17
e 7 72
e 7 68
e 7 55
e 7 53
e 7 42
e 7 38
e 7 37
e 7 32
e 7 24
e 7 19
e 9 80
e 9 69
e 9 65
e 9 58
e 9 57
e 9 56
e 9 44
e 9 25
e 9 16
e 9 14
e 10 78
e 10 75
e 10 74
e 10 72
e 10 68
e 10 64
e 10 61
e 10 55
e 10 49
e 10 42
e 10 40
e 10 38
e 10 36
e 10 19
e 10 18
e 10 17
e 11 39
e 11 35
e 11 14
e 11 12
e 12 39
e 12 35
e 13 47
e 13 34
e 13 22
e 14 80
e 14 69
e 14 65
e 14 56
e 14 44
e 14 39
e 14 35
e 14 25
e 15 79
e 15 71
e 15 70
e 15 63
e 15 43
e 15 29
e 15 27
e 15 21
e 16 67
e 16 65
e 16 57
e 16 54
e 16 48
e 16 45
e 16 41
e 16 25
e 17 78
e 17 74
e 17 73
e 17 64
e 17 62
e 17 61
e 17 59
e 17 36
e 17 30
e 17 23
e 17 18
e 18 78
e 18 77
e 18 74
e 18 73
e 18 64
e 18 61
e 18 59
e 18 36
e 18 30
e 18 23
e 19 75
e 19 72
e 19 68
e 19 55
e 19 53
e 19 42
e 19 38
e 19 37
e 19 26
e 19 24
e 20 66
e 20 60
e 20 41
e 21 79
e 21 71
e 21 70
e 21 63
e 21 29
e 21 27
e 22 47
e 22 34
e 23 78
e 23 77
e 23 74
e 23 73
e 23 64
e 23 62
e 23 61
e 23 59
e 23 36
e 23 30
e 24 72
e 24 55
e 24 53
e 24 42
e 24 37
e 24 32
e 25 80
e 25 69
e 25 65
e 25 56
e 25 44
e 26 76
e 26 75
e 26 68
e 26 51
e 26 50
e 26 49
e 26 40
e 26 38
e 27 79
e 27 76
e 27 71
e 27 70
e 27 63
e 27 51
e 27 43
e 27 29
e 28 66
e 28 60
e 28 57
e 28 54
e 28 33
e 28 31
e 29 79
e 29 76
e 29 71
e 29 70
e 29 63
e 29 51
e 29 43
e 30 78
e 30 74
e 30 73
e 30 64
e 30 62
e 30 61
e 30 59
e 31 66
e 31 58
e 31 57
e 31 54
e 31 41
e 31 33
e 32 72
e 32 55
e 32 53
e 32 42
e 32 37
e 33 66
e 33 60
e 33 57
e 33 54
e 33 41
e 34 47
e 35 80
e 35 69
e 35 56
e 35 39
e 36 78
e 36 77
e 36 75
e 36 74
e 36 64
e 36 61
e 36 49
e 36 38
e 37 72
e 37 55
e 37 53
e 37 42
e 38 75
e 38 72
e 38 68
e 38 55
e 38 50
e 38 49
e 38 42
e 38 40
e 39 80
e 39 44
e 40 77
e 40 76
e 40 75
e 40 68
e 40 50
e 40 49
e 41 66
e 41 60
e 41 57
e 41 54
e 41 45
e 42 72
e 42 68
e 42 55
e 42 53
e 42 52
e 43 79
e 43 76
e 43 71
e 43 63
e 43 51
e 44 80
e 44 69
e 44 65
e 44 56
e 45 67
e 45 48
e 48 76
e 48 67
e 48 50
e 49 77
e 49 76
e 49 75
e 49 68
e 49 50
e 50 77
e 50 76
e 50 75
e 50 68
e 51 79
e 51 76
e 51 71
e 51 68
e 51 63
e 52 72
e 52 64
e 52 55
e 53 72
e 53 55
e 54 66
e 54 60
e 54 57
e 55 72
e 56 80
e 56 69
e 56 65
e 56 58
e 57 66
e 57 58
e 58 80
e 58 69
e 58 65
e 59 78
e 59 74
e 59 73
e 59 64
e 59 62
e 59 61
e 60 66
e 61 78
e 61 77
e 61 74
e 61 73
e 61 64
e 62 78
e 62 74
e 62 73
e 62 64
e 63 79
e 63 76
e 63 71
e 63 70
e 64 78
e 64 74
e 64 73
e 65 80
e 65 69
e 68 76
e 68 75
e 69 80
e 70 79
e 70 71
e 71 79
e 71 76
e 73 78
e 73 74
e 74 78
e 76 79
e 77 78
